HUN,8,6,306
3,24,5,30,1,21,0,30,2,30,4,25
3,30,0,29,4,21,1,29,2,24,5,23
3,25,5,24,1,29,0,26,4,23,2,23
3,27,5,24,1,22,2,24,4,26,0,27
5,28,1,22,2,30,3,30,0,25,4,26
3,30,1,29,4,23,0,24,5,25,2,21
4,25,0,29,2,21,3,24,5,22,1,24
4,28,5,21,2,21,1,25,0,22,3,27
